Academic license - for non-commercial use only

Gurobi Optimizer version 7.5.2 build v7.5.2rc1 (linux64)
Copyright (c) 2017, Gurobi Optimization, Inc.

Read LP format model from file abz5.lp
Reading time = 1.95 seconds
: 64667 rows, 104461 columns, 4256104 nonzeros
Optimize a model with 64667 rows, 104461 columns and 4256104 nonzeros
Variable types: 0 continuous, 104461 integer (104460 binary)
Coefficient statistics:
  Matrix range     [1e+00, 1e+03]
  Objective range  [1e+00, 1e+00]
  Bounds range     [1e+00, 1e+00]
  RHS range        [1e+00, 1e+00]
Presolve removed 3911 rows and 2641 columns (presolve time = 5s) ...

Interrupt request received
Presolve removed 5224 rows and 3954 columns
Presolve time: 5.93s

Explored 0 nodes (0 simplex iterations) in 6.18 seconds
Thread count was 1 (of 4 available processors)

Solution count 0

Solve interrupted
Best objective -, best bound -, gap -

Unable to retrieve attribute 'X'

